c FILE /home/rafael/Documents/HappySet/MIHS/inputs/happygen/output/graph_d_regular_k10_p0.3_v100_20241127_084114.txt
c SOURCE This is a d-regular graph formed for the happy graph colouring problem.
c DESCRIPTION It was generated using the problem generator of Rhyd Lewis
c
c GRAPH STATS
c Seed                             = 674668033
c Number of Nodes                  = 100
c Number of colours k              = 10
c Number of pre-assignments        = 30
c Degree of all vertices           = 6
c Density                          = 0.0606061
c 
c The degrees of nodes 1 to 100, respectively, are as follows 
c [6, 6, 6, 6, 6, 6, 6, 6, 6, 6, 6, 6, 6, 6, 6, 6, 6, 6, 6, 6, 6, 6, 6, 6, 6, 6, 
c  6, 6, 6, 6, 6, 6, 6, 6, 6, 6, 6, 6, 6, 6, 6, 6, 6, 6, 6, 6, 6, 6, 6, 6, 6, 
c  6, 6, 6, 6, 6, 6, 6, 6, 6, 6, 6, 6, 6, 6, 6, 6, 6, 6, 6, 6, 6, 6, 6, 6, 6, 
c  6, 6, 6, 6, 6, 6, 6, 6, 6, 6, 6, 6, 6, 6, 6, 6, 6, 6, 6, 6, 6, 6, 6, 6] 
c  
p edge 100 300 10
e 1 33
e 1 53
e 1 59
e 1 70
e 1 75
e 1 83
e 2 24
e 2 37
e 2 44
e 2 53
e 2 77
e 2 89
e 3 35
e 3 36
e 3 57
e 3 60
e 3 65
e 3 79
e 4 43
e 4 45
e 4 46
e 4 48
e 4 90
e 4 91
e 5 49
e 5 58
e 5 69
e 5 89
e 5 96
e 5 100
e 6 14
e 6 58
e 6 63
e 6 79
e 6 84
e 6 97
e 7 16
e 7 20
e 7 43
e 7 75
e 7 81
e 7 83
e 8 38
e 8 46
e 8 66
e 8 86
e 8 87
e 8 100
e 9 51
e 9 52
e 9 59
e 9 64
e 9 81
e 9 94
e 10 22
e 10 23
e 10 60
e 10 64
e 10 94
e 10 97
e 11 12
e 11 23
e 11 29
e 11 35
e 11 39
e 11 51
e 12 37
e 12 40
e 12 47
e 12 59
e 12 61
e 13 24
e 13 59
e 13 64
e 13 65
e 13 75
e 13 82
e 14 25
e 14 35
e 14 69
e 14 70
e 14 98
e 15 18
e 15 38
e 15 50
e 15 63
e 15 71
e 15 98
e 16 26
e 16 42
e 16 52
e 16 86
e 16 96
e 17 24
e 17 33
e 17 56
e 17 70
e 17 82
e 17 88
e 18 22
e 18 31
e 18 33
e 18 42
e 18 92
e 19 22
e 19 76
e 19 78
e 19 79
e 19 85
e 19 99
e 20 27
e 20 44
e 20 56
e 20 57
e 20 98
e 21 39
e 21 40
e 21 43
e 21 63
e 21 73
e 21 84
e 22 25
e 22 40
e 22 91
e 23 57
e 23 61
e 23 63
e 23 100
e 24 71
e 24 87
e 24 97
e 25 31
e 25 63
e 25 80
e 25 89
e 26 31
e 26 34
e 26 57
e 26 80
e 26 84
e 27 32
e 27 37
e 27 74
e 27 94
e 27 99
e 28 66
e 28 68
e 28 71
e 28 83
e 28 89
e 28 95
e 29 39
e 29 40
e 29 42
e 29 47
e 29 96
e 30 31
e 30 34
e 30 40
e 30 47
e 30 54
e 30 88
e 31 45
e 31 62
e 32 35
e 32 37
e 32 46
e 32 55
e 32 76
e 33 70
e 33 75
e 33 93
e 34 35
e 34 38
e 34 68
e 34 76
e 35 61
e 36 39
e 36 46
e 36 79
e 36 92
e 36 100
e 37 42
e 37 50
e 38 50
e 38 61
e 38 68
e 39 46
e 39 78
e 40 69
e 41 62
e 41 72
e 41 76
e 41 88
e 41 90
e 41 100
e 42 69
e 42 77
e 43 68
e 43 78
e 43 87
e 44 58
e 44 82
e 44 83
e 44 95
e 45 48
e 45 53
e 45 80
e 45 87
e 46 96
e 47 66
e 47 88
e 47 92
e 48 76
e 48 80
e 48 96
e 48 97
e 49 54
e 49 67
e 49 85
e 49 90
e 49 99
e 50 62
e 50 67
e 50 94
e 51 53
e 51 67
e 51 69
e 51 87
e 52 55
e 52 80
e 52 90
e 52 98
e 53 82
e 53 87
e 54 55
e 54 58
e 54 67
e 54 84
e 55 67
e 55 73
e 55 99
e 56 84
e 56 85
e 56 91
e 56 98
e 57 68
e 57 72
e 58 65
e 58 73
e 59 72
e 59 95
e 60 62
e 60 83
e 60 85
e 60 93
e 61 75
e 61 93
e 62 89
e 62 90
e 63 78
e 64 67
e 64 79
e 64 85
e 65 73
e 65 81
e 65 91
e 66 76
e 66 88
e 66 94
e 68 71
e 69 82
e 70 84
e 70 92
e 71 74
e 71 78
e 72 78
e 72 95
e 72 100
e 73 95
e 73 98
e 74 81
e 74 86
e 74 92
e 74 99
e 75 86
e 77 85
e 77 92
e 77 93
e 77 99
e 79 82
e 80 91
e 81 91
e 81 93
e 83 95
e 86 88
e 86 90
e 89 94
e 93 97
e 96 97
n 4 3
n 14 7
n 16 4
n 17 8
n 18 6
n 21 9
n 27 5
n 30 6
n 31 6
n 32 5
n 37 5
n 39 9
n 57 2
n 58 10
n 61 6
n 63 9
n 64 10
n 67 10
n 71 5
n 74 5
n 75 6
n 76 5
n 80 1
n 81 5
n 90 3
n 96 4
n 97 4
n 98 7
n 99 5
n 100 2
